50 8
604 902
189 519
657 188
879 393
865 136
933 416
356 400
407 109
296 343
336 58
751 709
180 545
135 559
612 746
400 774
583 80
683 721
465 390
337 302
366 50
149 525
300 660
723 408
451 46
793 293
751 98
814 471
585 418
304 416
414 188
575 851
305 460
321 117
206 366
718 886
783 213
624 703
199 554
301 629
522 250
294 600
803 356
638 784
330 314
291 535
296 383
503 714
692 224
579 359
954 366
